[runlim] version:		1.10
[runlim] time limit:		311040000 seconds
[runlim] real time limit:	900 seconds
[runlim] space limit:		8000 MB
[runlim] argv[0]:		python3
[runlim] argv[1]:		cp.py
[runlim] argv[2]:		graph09
[runlim] start:			Sat Jan 17 06:08:15 2026
[runlim] main pid:		144303
[runlim] sample:		10.0 time, 10.1 real, 589.6 MB
[runlim] sample:		20.0 time, 20.1 real, 2031.2 MB
Building CP model...
Build time: 6.28s
Solving CP Optimizer...
 ! --------------------------------------------------- CP Optimizer 22.1.1.0 --
 ! Minimization problem - 36140 variables, 652877 constraints
 ! Presolve      : 653795 extractables eliminated
 ! LogVerbosity         = Terse
 ! Initial process time : 6.67s (6.63s extraction + 0.04s propagation)
 !  . Log search space  : 36140.0 (before), 36140.0 (after)
 !  . Memory usage      : 118.1 MB (before), 118.1 MB (after)
 ! Using parallel search with 12 workers.
 ! ----------------------------------------------------------------------------
 !          Best Branches  Non-fixed    W       Branch decision
                        0      36140                 -
 + New bound is 0
[runlim] sample:		127.4 time, 30.1 real, 3827.1 MB
                        0      36140    1            -
 + New bound is 1
[runlim] sample:		204.8 time, 40.1 real, 3841.6 MB
[runlim] sample:		282.2 time, 50.1 real, 4007.5 MB
 *            44     3523  36.42s       5      (gap is 97.73%)
[runlim] sample:		350.9 time, 60.1 real, 4038.7 MB
[runlim] sample:		404.0 time, 70.1 real, 4154.1 MB
[runlim] sample:		467.2 time, 80.1 real, 4157.2 MB
[runlim] sample:		549.4 time, 90.1 real, 4161.6 MB
[runlim] sample:		611.9 time, 100.1 real, 4168.6 MB
[runlim] sample:		677.5 time, 110.1 real, 4173.6 MB
[runlim] sample:		745.9 time, 120.1 real, 4176.8 MB
[runlim] sample:		826.1 time, 130.1 real, 4181.0 MB
[runlim] sample:		896.0 time, 140.1 real, 4185.6 MB
[runlim] sample:		967.2 time, 150.1 real, 4189.8 MB
 *            42    35061  141.49s     12      (gap is 97.62%)
[runlim] sample:		1031.5 time, 160.1 real, 4230.9 MB
[runlim] sample:		1094.5 time, 170.1 real, 4232.9 MB
[runlim] sample:		1155.0 time, 180.1 real, 4234.7 MB
[runlim] sample:		1206.4 time, 190.1 real, 4285.0 MB
[runlim] sample:		1270.6 time, 200.1 real, 4287.0 MB
[runlim] sample:		1338.2 time, 210.1 real, 4289.9 MB
[runlim] sample:		1397.3 time, 220.1 real, 4295.0 MB
[runlim] sample:		1462.3 time, 230.1 real, 4298.5 MB
 *            40    55907  224.09s     12      (gap is 97.50%)
[runlim] sample:		1528.5 time, 240.1 real, 4345.8 MB
[runlim] sample:		1588.5 time, 250.1 real, 4349.3 MB
[runlim] sample:		1649.0 time, 260.1 real, 4350.6 MB
[runlim] sample:		1696.7 time, 270.1 real, 4401.0 MB
[runlim] sample:		1737.4 time, 280.1 real, 4453.4 MB
[runlim] sample:		1782.5 time, 290.1 real, 4463.1 MB
[runlim] sample:		1851.3 time, 300.1 real, 4467.3 MB
[runlim] sample:		1916.0 time, 310.1 real, 4471.1 MB
[runlim] sample:		1978.9 time, 320.1 real, 4473.4 MB
[runlim] sample:		2025.0 time, 330.1 real, 4475.5 MB
 *            38    73490  326.33s      5      (gap is 97.37%)
[runlim] sample:		2083.9 time, 340.1 real, 4513.2 MB
[runlim] sample:		2137.8 time, 350.1 real, 4514.3 MB
[runlim] sample:		2189.1 time, 360.1 real, 4515.4 MB
[runlim] sample:		2236.9 time, 370.1 real, 4519.6 MB
[runlim] sample:		2291.4 time, 380.1 real, 4522.2 MB
[runlim] sample:		2342.2 time, 390.1 real, 4530.8 MB
[runlim] sample:		2407.5 time, 400.1 real, 4532.9 MB
[runlim] sample:		2465.7 time, 410.1 real, 4533.8 MB
[runlim] sample:		2535.1 time, 420.1 real, 4533.8 MB
[runlim] sample:		2600.9 time, 430.1 real, 4534.2 MB
[runlim] sample:		2654.6 time, 440.1 real, 4535.8 MB
[runlim] sample:		2705.4 time, 450.1 real, 4537.3 MB
[runlim] sample:		2763.0 time, 460.1 real, 4540.6 MB
[runlim] sample:		2823.0 time, 470.1 real, 4542.8 MB
[runlim] sample:		2869.7 time, 480.1 real, 4548.7 MB
[runlim] sample:		2922.9 time, 490.1 real, 4550.1 MB
[runlim] sample:		2971.2 time, 500.1 real, 4553.1 MB
[runlim] sample:		3014.8 time, 510.1 real, 4592.4 MB
[runlim] sample:		3065.2 time, 520.1 real, 4593.7 MB
[runlim] sample:		3115.8 time, 530.1 real, 4595.2 MB
[runlim] sample:		3177.3 time, 540.1 real, 4596.7 MB
[runlim] sample:		3237.6 time, 550.1 real, 4599.2 MB
[runlim] sample:		3286.3 time, 560.1 real, 4601.3 MB
[runlim] sample:		3344.6 time, 570.1 real, 4603.7 MB
[runlim] sample:		3397.8 time, 580.1 real, 4608.2 MB
[runlim] sample:		3443.3 time, 590.1 real, 4609.8 MB
[runlim] sample:		3481.9 time, 600.1 real, 4611.7 MB
[runlim] sample:		3520.6 time, 610.1 real, 4611.9 MB
[runlim] sample:		3557.0 time, 620.1 real, 4611.9 MB
[runlim] sample:		3614.9 time, 630.1 real, 4612.2 MB
 *            37     110k  621.95s      1      (gap is 97.30%)
[runlim] sample:		3649.7 time, 640.1 real, 4652.0 MB
 *            36     111k  628.26s      1      (gap is 97.22%)
[runlim] sample:		3693.4 time, 650.1 real, 4674.9 MB
[runlim] sample:		3734.9 time, 660.1 real, 4679.6 MB
[runlim] sample:		3783.6 time, 670.1 real, 4687.4 MB
[runlim] sample:		3824.4 time, 680.1 real, 4697.9 MB
[runlim] sample:		3872.1 time, 690.1 real, 4711.4 MB
[runlim] sample:		3895.1 time, 700.1 real, 4715.0 MB
[runlim] sample:		3928.0 time, 710.1 real, 4716.5 MB
[runlim] sample:		3963.7 time, 720.1 real, 4721.1 MB
[runlim] sample:		4004.0 time, 730.1 real, 4730.3 MB
 *            35     150k  722.65s      4      (gap is 97.14%)
[runlim] sample:		4050.0 time, 740.1 real, 4812.3 MB
[runlim] sample:		4097.2 time, 750.1 real, 4821.0 MB
[runlim] sample:		4145.2 time, 760.1 real, 4829.1 MB
 *            34     154k  750.00s      6      (gap is 97.06%)
[runlim] sample:		4180.8 time, 770.1 real, 4868.8 MB
[runlim] sample:		4221.7 time, 780.1 real, 4874.1 MB
[runlim] sample:		4267.2 time, 790.1 real, 4878.7 MB
 *            33     135k  783.45s     12      (gap is 96.97%)
[runlim] sample:		4315.4 time, 800.1 real, 4908.4 MB
 *            32     159k  792.68s      4      (gap is 96.88%)
[runlim] sample:		4355.2 time, 810.1 real, 4948.0 MB
[runlim] sample:		4410.4 time, 820.1 real, 4950.0 MB
[runlim] sample:		4458.3 time, 830.1 real, 4953.7 MB
[runlim] sample:		4490.4 time, 840.1 real, 4954.5 MB
[runlim] sample:		4528.9 time, 850.1 real, 4981.5 MB
[runlim] sample:		4568.9 time, 860.1 real, 4988.7 MB
[runlim] sample:		4607.2 time, 870.1 real, 4991.8 MB
[runlim] sample:		4637.5 time, 880.1 real, 5032.7 MB
[runlim] sample:		4678.0 time, 890.1 real, 5051.0 MB
 *            31     162k  880.86s     12      (gap is 96.77%)
[runlim] end:			Sat Jan 17 06:23:15 2026
[runlim] status:		out of time
[runlim] result:		2
[runlim] children:		8936
[runlim] real:			900.06 seconds
[runlim] time:			4710.17 seconds
[runlim] space:			5783.0 MB
[runlim] samples:		8999
